  # Default styles for molecules built out of "Monomers"
  units           lj
  atom_style      full

  bond_style      hybrid harmonic table linear 4001
  angle_style     none
  dihedral_style  none

  pair_style      hybrid lj/cut 2.5

  pair_modify     mix arithmetic
  special_bonds   lj/coul  1 1 1
  boundary s s s    
  read_data system.data
  
  pair_coeff 1 1 lj/cut 1.0 1.0 1.122462048309373
  pair_coeff 2 2 lj/cut 1.0 1.0 1.122462048309373
  bond_coeff 3 harmonic 100.0 1.0
  #angle_coeff 1 cosine 5.0  #<-10nm fiber
  # stage 1 bonds are initially off
  bond_coeff 1 harmonic 0.0 0.5   # <--(we can override this later)"
  # stage 2 bonds are initially off
  bond_coeff 2 harmonic 0.0 0.0   # <--(we can override this later)"
  
  # -- Run Section --

dump    1 all custom 10000 traj_min.lammpstrj id mol type x y z ix iy iz
thermo_style    custom step pe etotal vol epair ebond eangle edihed
thermo_modify   norm no  #(report total energy not energy / num_atoms)
thermo          100    #(time interval for printing out "thermo" data)

# Now minimize the system:

min_style quickmin
min_modify dmax 0.05
minimize 1.0e-7 1.0e-8 30000 100000000

write_data 1_system_after_min.data
  
