  units           lj
  atom_style      full

  bond_style      hybrid harmonic table linear 4001
  angle_style     none
  dihedral_style  none

  pair_style      hybrid lj/cut 2.5

  pair_modify     mix arithmetic
  special_bonds   lj/coul  1 1 1
  boundary s s s    
  read_data 1_system_after_min.data
  
  pair_coeff 1 1 lj/cut 1.0 1.0 1.122462048309373
  pair_coeff 2 2 lj/cut 1.0 1.0 1.122462048309373
  bond_coeff 3 harmonic 100.0 1.0

  bond_coeff 1 harmonic 0.0 0.5  

  bond_coeff 2 harmonic 0.0 0.0   
  
  # -- Run Section --

mass      *  1.0
timestep     0.005     #  "dt"
dump         1 all custom 1000 traj_stage1.lammpstrj id mol type x y z ix iy iz
reset_timestep  0


#     --- run the simulation ---


# set the velocity to zero
velocity all create 0.0  123456


#                           Tstart     Tstop    tdamp      randomseed

fix fxlan all langevin       1.0        1.0     10.0         123456

fix fxnve all nve 

fix fxcenter all recenter 0.0 0.0 0.0

thermo_style    custom step temp pe etotal press vol epair ebond eangle edihed
thermo_modify   norm no  #(report total energy not energy / num_atoms)
thermo          1000    #(time interval for printing out "thermo" data)




variable nloop1 loop 300

    label loop1

    print "############### LOOP ${nloop1} ###############"

    # Loop anchors of adjacent loops were brought into proximity by employing harmonic springs characterized by a 
    # potential function U = k * (r – r0)², where r0 is set to 0.5. To prevent abrupt motion of the 
    # loop anchors, the force was gradually activated over the initial 300,000 timesteps. 
    # During this period, the force constant k linearly increased in time from 0 to 10 kT.
    #
    #    Formula used for "bond_style harmonic":
    # Ubond(r) = k*(r-r0)^2
    #           bondType    style
    #bond_coeff    1       harmonic    0.1  0.5
  
    variable time equal step
    variable KbondC equal $((v_time+1)*(10.0/300000.0))
    print "timestep = ${time}, KbondC = ${KbondC}" file KbondC_vs_time.dat

    #bond_coeff    1       harmonic    ${KbondC}  0.5
    bond_coeff    1       harmonic    ${KbondC}  0.5
    run   1000
  
    next nloop1
    jump SELF loop1

write_data 2_system_after_loopcreate.data
