variable mn equal 100
variable epsilon equal ${mn}/100


  units           lj
  atom_style      full

  bond_style      hybrid harmonic table linear 2545
  angle_style     cosine
  dihedral_style  none

  pair_style      hybrid lj/cut 2.5

  pair_modify     mix arithmetic
  special_bonds   lj/coul  1 1 1
  comm_modify mode single cutoff 3.0
  boundary s s s    
  read_data 3_system_after_condensation.data
  
  
  
#          atomTypes  pairStyle   epsilon sigma rcutoff

pair_coeff    1 1     lj/cut      ${epsilon}     1.0   2.5
pair_coeff    2 2     lj/cut      ${epsilon}     1.0   2.5


bond_coeff 3 harmonic 100.0 1.0

# During stage 2, add attractive forces between all pairs of non-consecutive
# condensin anchors.  These forces are stored in the table file below:
#          bondType   bondStyle      filename            label
bond_coeff    2       table      table_bonds_stage2.dat  STAGE2



#          bondType   bondStyle    k     r0
bond_coeff    1       harmonic    10.0  0.5
  
  
angle_coeff 1 5.0  #<-10nm fiber




dump         1 all custom 2000 traj_stage3.lammpstrj id mol type x y z ix iy iz





#     --- run the simulation ---

# To use Langevin dynamics in LAMMPS you need both "fix langevin" and "fix nve"
# (See http://lammps.sandia.gov/doc/fix_langevin.html for details.)

#                           Tstart     Tstop    tdamp      randomseed

fix fxlan all langevin       1.0        1.0     1.0         123456


fix fxnve all nve 
# (See http://lammps.sandia.gov/doc/fix_langevin.html)





thermo_style    custom step temp pe etotal press vol epair ebond eangle edihed
thermo_modify   norm no  #(report total energy not energy / num_atoms)
thermo          1000    #(time interval for printing out "thermo" data)

timestep     0.01

group anchor type 2


fix INDENT anchor indent 1 cylinder z 0.0 0.0 0.1 side in
run 1000000


write_data 4_system_after_indent.data
