variable mn equal 100
variable epsilon equal ${mn}/100


  units           lj
  atom_style      full

  bond_style      hybrid harmonic table linear 4001
  angle_style     none
  dihedral_style  none

  pair_style      hybrid lj/cut 2.5

  pair_modify     mix arithmetic
  special_bonds   lj/coul  1 1 1
  comm_modify mode single cutoff 3.0
  boundary s s s    
  read_data 3_system_after_condensation.data
  
  
  
#          atomTypes  pairStyle   epsilon sigma rcutoff

pair_coeff    1 1     lj/cut      ${epsilon}     1.0   2.5
pair_coeff    2 2     lj/cut      ${epsilon}     1.0   2.5


bond_coeff 3 harmonic 100.0 1.0


#          bondType   bondStyle      filename            label
bond_coeff    2       table      table_bonds_stage2.dat  STAGE2



#          bondType   bondStyle    k     r0
bond_coeff    1       harmonic    10.0  0.5
  
 
dump         1 all custom 1000 traj_stage3.lammpstrj id mol type x y z ix iy iz

#     --- run the simulation ---

fix fxlan all langevin       1.0        1.0     10.0         123456

fix fxnve all nve 

thermo_style    custom step temp pe etotal press vol epair ebond eangle edihed
thermo_modify   norm no  #(report total energy not energy / num_atoms)
thermo          1000    #(time interval for printing out "thermo" data)

timestep     0.005
#run 10000


fix INDENT all indent 0.1 cylinder z 0.0 0.0 4 side in
run 100000


write_data 4_system_after_indent.data
